\* Problem: Unknown *\

Minimize
 obj: + 5 x_4 - 800 x_12 - x_13 - 800 x_15 - x_16 - 800 x_20 - x_21
 - 800 x_25 - x_26 - 800 x_28 - x_29 - 800 x_31 - x_32 - 5 x_35
 - 800 x_49 - x_50 + 5 x_53 + 5 x_54 - 5 x_61 - 5 x_64 + 5 x_65 + 5 x_66
 + 5 x_67 - 1000 x_69 + 5 x_70 - 5 x_71 - 1000 x_72 + 5 x_73 - 1000 x_75
 + 5 x_76 - 5 x_77 - 1000 x_78 + 5 x_79 - 5 x_80 - 1000 x_81 + 5 x_82
 - 1000 x_84 + 5 x_85 - 5 x_86 - 1000 x_87 + 5 x_88 - 5 x_89 - 1000 x_90
 + 5 x_91 - 5 x_92 - 1000 x_93 + 5 x_94 - 1000 x_96 + 5 x_97 - 1000 x_99
 + 5 x_100 - 1000 x_102 + 5 x_103 - 1000 x_105 + 5 x_106 - 5 x_107
 - 1000 x_108 + 5 x_109 - 1000 x_111 + 5 x_112 - 1000 x_114 + 5 x_115
 - 1000 x_117 + 5 x_118 - 5 x_119 - 1000 x_120 + 5 x_121 - 5 x_122
 - 1000 x_123 + 5 x_124 - 5 x_126 - 800 x_128 - x_129 - 800 x_131
 - x_132 + 5 x_133 + 5 x_134 + 5 x_135 + 5 x_136 - 800 x_138 - x_139
 + 5 x_140 + 5 x_141 - 5 x_148 - 5 x_156 - 800 x_172 - x_173 - 5 x_175
 + 5 x_176 + 5 x_177 - 5 x_178 - 5 x_179 - 5 x_185 - 5 x_238 - 5 x_239
 - 5 x_243 - 5 x_245 - 5 x_246 - 5 x_247 - 5 x_248 - 5 x_253 - 5 x_254
 - 5 x_261 - 5 x_262 - 5 x_263 - 5 x_269 - 5 x_270 - 800 x_272 - x_273
 - 800 x_277 - x_278 - 800 x_280 - x_281 - 800 x_283 - x_284 + 5 x_286
 + 5 x_287 - 5 x_288 - 5 x_304 - 5 x_316 - 5 x_319 - 5 x_328 - 5 x_337
 - 5 x_346

Subject To
 r_1: + x_1 = 0
 r_2: + x_51 + x_17 >= 0
 r_3: + x_2 + x_1 >= 0
 r_4: + x_3 + x_2 >= 0
 r_5: + x_165 + x_66 >= 0
 r_6: + x_4 >= 0
 r_7: + x_319 + x_243 + x_156 >= 0
 r_8: + x_5 = 0
 r_9: + x_269 + x_92 + x_71 >= 0
 r_10: + x_6 >= 0
 r_11: + x_268 + x_5 >= 0
 r_12: + x_8 + x_7 >= 0
 r_13: + x_7 = 0
 r_14: + x_8 >= 0
 r_15: + x_10 + x_9 >= 0
 r_16: + x_6 >= 0
 r_17: + x_292 - ~r_17 = 0
 r_18: + x_2 - ~r_18 = 0
 r_19: + x_3 - ~r_19 = 0
 r_20: + x_295 + x_292 - ~r_20 = 0
 r_21: + x_11 - ~r_21 = 0
 r_22: + x_14 - ~r_22 = 0
 r_23: + x_18 - ~r_23 = 0
 r_24: + x_19 - ~r_24 = 0
 r_25: + x_22 - ~r_25 = 0
 r_26: + x_24 - ~r_26 = 0
 r_27: + x_176 - ~r_27 = 0
 r_28: + x_27 - ~r_28 = 0
 r_29: + x_30 - ~r_29 = 0
 r_30: + x_33 - ~r_30 = 0
 r_31: + x_36 - ~r_31 = 0
 r_32: + x_295 + x_292 + x_289 + x_45 + x_42 - ~r_32 = 0
 r_33: + x_42 - ~r_33 = 0
 r_34: + x_295 + x_292 + x_289 + x_45 - ~r_34 = 0
 r_35: + x_45 - ~r_35 = 0
 r_36: + x_289 - ~r_36 = 0
 r_37: + x_48 - ~r_37 = 0
 r_38: + x_52 - ~r_38 = 0
 r_39: + x_127 - ~r_39 = 0
 r_40: + x_133 - ~r_40 = 0
 r_41: + x_130 - ~r_41 = 0
 r_42: + x_134 - ~r_42 = 0
 r_43: + x_137 - ~r_43 = 0
 r_44: + x_140 - ~r_44 = 0
 r_45: + x_163 - ~r_45 = 0
 r_46: + x_159 - ~r_46 = 0
 r_47: + x_331 + x_163 - ~r_47 = 0
 r_48: + x_161 - ~r_48 = 0
 r_49: + x_286 - ~r_49 = 0
 r_50: + x_165 - ~r_50 = 0
 r_51: + x_165 + x_66 - ~r_51 = 0
 r_52: + x_292 - ~r_52 = 0
 r_53: + x_289 + x_45 - ~r_53 = 0
 r_54: + x_171 - ~r_54 = 0
 r_55: + x_174 - ~r_55 = 0
 r_56: + x_194 - ~r_56 = 0
 r_57: + x_197 - ~r_57 = 0
 r_58: + x_200 - ~r_58 = 0
 r_59: + x_203 - ~r_59 = 0
 r_60: + x_206 - ~r_60 = 0
 r_61: + x_209 - ~r_61 = 0
 r_62: + x_212 - ~r_62 = 0
 r_63: + x_133 - ~r_63 = 0
 r_64: + x_134 - ~r_64 = 0
 r_65: + x_215 - ~r_65 = 0
 r_66: + x_218 - ~r_66 = 0
 r_67: + x_221 - ~r_67 = 0
 r_68: + x_224 - ~r_68 = 0
 r_69: + x_227 - ~r_69 = 0
 r_70: + x_322 - ~r_70 = 0
 r_71: + x_271 - ~r_71 = 0
 r_72: + x_274 - ~r_72 = 0
 r_73: + x_334 + x_275 - ~r_73 = 0
 r_74: + x_275 - ~r_74 = 0
 r_75: + x_276 - ~r_75 = 0
 r_76: + x_279 - ~r_76 = 0
 r_77: + x_230 - ~r_77 = 0
 r_78: + x_65 - ~r_78 = 0
 r_79: + x_66 - ~r_79 = 0
 r_80: + x_53 - ~r_80 = 0
 r_81: + x_295 + x_292 + x_289 + x_174 + x_45 + x_42 + x_36 - ~r_81 = 0
 r_82: + x_11 >= 0
 r_83: + x_194 >= 0
 r_84: + x_13 + x_12 >= 0
 r_85: + x_12 - ~r_85 = 0
 r_86: + x_13 >= 0
 r_87: + x_14 >= 0
 r_88: + x_197 >= 0
 r_89: + x_16 + x_15 >= 0
 r_90: + x_15 - ~r_90 = 0
 r_91: + x_16 >= 0
 r_92: + x_310 + x_307 + x_257 + x_51 + x_17 >= 0
 r_93: + x_18 + x_17 >= 0
 r_94: + x_301 + x_260 + x_258 + x_110 + x_95 >= 0
 r_95: + x_307 - ~r_95 = 0
 r_96: + x_19 >= 0
 r_97: + x_200 >= 0
 r_98: + x_21 + x_20 >= 0
 r_99: + x_20 - ~r_99 = 0
 r_100: + x_21 >= 0
 r_101: + x_316 + x_246 + x_126 >= 0
 r_102: + x_316 - ~r_102 = 0
 r_103: + x_23 + x_22 >= 0
 r_104: + x_313 + x_298 + x_256 + x_251 + x_250 + x_182 + x_74 >= 0
 r_105: + x_24 >= 0
 r_106: + x_203 >= 0
 r_107: + x_26 + x_25 >= 0
 r_108: + x_25 - ~r_108 = 0
 r_109: + x_26 >= 0
 r_110: + x_346 + x_328 + x_239 + x_185 >= 0
 r_111: + x_328 - ~r_111 = 0
 r_112: + x_27 >= 0
 r_113: + x_206 >= 0
 r_114: + x_29 + x_28 >= 0
 r_115: + x_28 - ~r_115 = 0
 r_116: + x_29 >= 0
 r_117: + x_30 >= 0
 r_118: + x_209 >= 0
 r_119: + x_32 + x_31 >= 0
 r_120: + x_31 - ~r_120 = 0
 r_121: + x_32 >= 0
 r_122: + x_313 + x_256 + x_74 >= 0
 r_123: + x_34 + x_33 >= 0
 r_124: + x_310 + x_307 + x_257 + x_51 + x_17 >= 0
 r_125: + x_313 - ~r_125 = 0
 r_126: + x_35 = 0
 r_127: + x_313 + x_298 + x_256 + x_251 + x_182 + x_74 >= 0
 r_128: + x_295 + x_292 + x_289 + x_45 + x_42 + x_36 >= 0
 r_129: + x_37 + x_36 >= 0
 r_130: + x_265 + x_38 >= 0
 r_131: + x_38 = 0
 r_132: + x_269 + x_92 + x_89 + x_86 + x_80 + x_71 >= 0
 r_133: + x_319 - ~r_133 = 0
 r_134: + x_319 + x_243 + x_156 >= 0
 r_135: + x_40 + x_39 >= 0
 r_136: + x_349 + x_241 >= 0
 r_137: + x_41 = 0
 r_138: + x_269 + x_175 + x_92 + x_89 + x_86 + x_80 + x_71 >= 0
 r_139: + x_295 + x_292 + x_289 + x_45 + x_42 >= 0
 r_140: + x_43 + x_42 >= 0
 r_141: + x_266 + x_44 >= 0
 r_142: + x_44 = 0
 r_143: + x_89 + x_86 >= 0
 r_144: + x_289 + x_45 >= 0
 r_145: + x_46 + x_45 >= 0
 r_146: + x_267 + x_47 >= 0
 r_147: + x_47 = 0
 r_148: + x_269 + x_92 + x_89 + x_86 + x_71 >= 0
 r_149: + x_189 >= 0
 r_150: + x_48 >= 0
 r_151: + x_212 >= 0
 r_152: + x_50 + x_49 >= 0
 r_153: + x_49 - ~r_153 = 0
 r_154: + x_50 >= 0
 r_155: + x_304 + x_248 + x_122 >= 0
 r_156: + x_52 + x_51 >= 0
 r_157: + x_2 + x_1 >= 0
 r_158: + x_304 - ~r_158 = 0
 r_159: + x_54 + x_53 >= 0
 r_160: + x_270 + x_178 >= 0
 r_161: + x_55 >= 0
 r_162: + x_142 >= 0
 r_163: + x_57 + x_56 >= 0
 r_164: + x_56 = 0
 r_165: + x_57 >= 0
 r_166: + x_58 >= 0
 r_167: + x_143 >= 0
 r_168: + x_60 + x_59 >= 0
 r_169: + x_59 = 0
 r_170: + x_60 >= 0
 r_171: + x_61 >= 0
 r_172: + x_171 >= 0
 r_173: + x_63 + x_62 >= 0
 r_174: + x_62 = 0
 r_175: + x_63 >= 0
 r_176: + x_64 = 0
 r_177: + x_254 + x_179 + x_64 >= 0
 r_178: + x_67 + x_66 + x_65 >= 0
 r_179: + x_262 + x_261 + x_61 + x_35 >= 0
 r_180: + x_68 >= 0
 r_181: + x_162 >= 0
 r_182: + x_70 + x_69 >= 0
 r_183: + x_69 - ~r_183 = 0
 r_184: + x_70 >= 0
 r_185: + x_71 >= 0
 r_186: + x_9 >= 0
 r_187: + x_73 + x_72 >= 0
 r_188: + x_72 - ~r_188 = 0
 r_189: + x_73 >= 0
 r_190: + x_74 >= 0
 r_191: + x_34 >= 0
 r_192: + x_76 + x_75 >= 0
 r_193: + x_75 - ~r_193 = 0
 r_194: + x_76 >= 0
 r_195: + x_77 >= 0
 r_196: + x_23 >= 0
 r_197: + x_79 + x_78 >= 0
 r_198: + x_78 - ~r_198 = 0
 r_199: + x_79 >= 0
 r_200: + x_80 >= 0
 r_201: + x_37 >= 0
 r_202: + x_82 + x_81 >= 0
 r_203: + x_81 - ~r_203 = 0
 r_204: + x_82 >= 0
 r_205: + x_83 >= 0
 r_206: + x_39 >= 0
 r_207: + x_85 + x_84 >= 0
 r_208: + x_84 - ~r_208 = 0
 r_209: + x_85 >= 0
 r_210: + x_86 >= 0
 r_211: + x_43 >= 0
 r_212: + x_88 + x_87 >= 0
 r_213: + x_87 - ~r_213 = 0
 r_214: + x_88 >= 0
 r_215: + x_89 >= 0
 r_216: + x_46 >= 0
 r_217: + x_91 + x_90 >= 0
 r_218: + x_90 - ~r_218 = 0
 r_219: + x_91 >= 0
 r_220: + x_92 >= 0
 r_221: + x_54 >= 0
 r_222: + x_94 + x_93 >= 0
 r_223: + x_93 - ~r_223 = 0
 r_224: + x_94 >= 0
 r_225: + x_95 >= 0
 r_226: + x_67 >= 0
 r_227: + x_97 + x_96 >= 0
 r_228: + x_96 - ~r_228 = 0
 r_229: + x_97 >= 0
 r_230: + x_98 >= 0
 r_231: + x_135 >= 0
 r_232: + x_100 + x_99 >= 0
 r_233: + x_99 - ~r_233 = 0
 r_234: + x_100 >= 0
 r_235: + x_101 >= 0
 r_236: + x_141 >= 0
 r_237: + x_103 + x_102 >= 0
 r_238: + x_102 - ~r_238 = 0
 r_239: + x_103 >= 0
 r_240: + x_104 >= 0
 r_241: + x_160 >= 0
 r_242: + x_106 + x_105 >= 0
 r_243: + x_105 - ~r_243 = 0
 r_244: + x_106 >= 0
 r_245: + x_107 >= 0
 r_246: + x_149 >= 0
 r_247: + x_109 + x_108 >= 0
 r_248: + x_108 - ~r_248 = 0
 r_249: + x_109 >= 0
 r_250: + x_110 >= 0
 r_251: + x_166 >= 0
 r_252: + x_112 + x_111 >= 0
 r_253: + x_111 - ~r_253 = 0
 r_254: + x_112 >= 0
 r_255: + x_113 >= 0
 r_256: + x_177 >= 0
 r_257: + x_115 + x_114 >= 0
 r_258: + x_114 - ~r_258 = 0
 r_259: + x_115 >= 0
 r_260: + x_116 >= 0
 r_261: + x_164 + x_104 >= 0
 r_262: + x_118 + x_117 >= 0
 r_263: + x_117 - ~r_263 = 0
 r_264: + x_118 >= 0
 r_265: + x_119 >= 0
 r_266: + x_287 >= 0
 r_267: + x_121 + x_120 >= 0
 r_268: + x_120 - ~r_268 = 0
 r_269: + x_121 >= 0
 r_270: + x_122 >= 0
 r_271: + x_249 + x_151 + x_3 >= 0
 r_272: + x_124 + x_123 >= 0
 r_273: + x_123 - ~r_273 = 0
 r_274: + x_124 >= 0
 r_275: + x_125 = 0
 r_276: + x_126 = 0
 r_277: + x_316 + x_246 + x_126 + x_119 + x_77 >= 0
 r_278: + x_127 >= 0
 r_279: + x_133 >= 0
 r_280: + x_129 + x_128 >= 0
 r_281: + x_128 - ~r_281 = 0
 r_282: + x_129 >= 0
 r_283: + x_340 + x_237 + x_98 >= 0
 r_284: + x_340 - ~r_284 = 0
 r_285: + x_130 >= 0
 r_286: + x_134 >= 0
 r_287: + x_132 + x_131 >= 0
 r_288: + x_131 - ~r_288 = 0
 r_289: + x_132 >= 0
 r_290: + x_343 + x_340 + x_237 + x_236 + x_98 >= 0
 r_291: + x_343 - ~r_291 = 0
 r_292: + x_135 + x_134 + x_133 >= 0
 r_293: + x_346 + x_337 + x_328 + x_239 + x_238 + x_185 >= 0
 r_294: + x_136 >= 0
 r_295: + x_263 + x_148 >= 0
 r_296: + x_137 >= 0
 r_297: + x_215 >= 0
 r_298: + x_139 + x_138 >= 0
 r_299: + x_138 - ~r_299 = 0
 r_300: + x_139 >= 0
 r_301: + x_141 + x_140 >= 0
 r_302: + x_269 + x_254 + x_253 + x_179 + x_175 + x_107 + x_92 + x_89
 + x_86 + x_80 + x_71 + x_64 >= 0
 r_303: + x_298 + x_251 + x_182 >= 0
 r_304: + x_298 - ~r_304 = 0
 r_305: + x_144 + x_143 + x_142 >= 0
 r_306: + x_343 + x_340 + x_237 + x_236 + x_235 + x_234 + x_233 + x_188
 + x_98 >= 0
 r_307: + x_145 >= 0
 r_308: + x_136 >= 0
 r_309: + x_147 + x_146 >= 0
 r_310: + x_146 = 0
 r_311: + x_147 >= 0
 r_312: + x_148 = 0
 r_313: + x_269 + x_175 + x_107 + x_92 + x_89 + x_86 + x_80 + x_71 >= 0
 r_314: + x_295 + x_292 >= 0
 r_315: + x_150 + x_149 >= 0
 r_316: + x_145 >= 0
 r_317: + x_295 - ~r_317 = 0
 r_318: + x_151 = 0
 r_319: + x_304 + x_288 + x_248 + x_122 >= 0
 r_320: + x_152 = 0
 r_321: + x_164 + x_104 >= 0
 r_322: + x_153 >= 0
 r_323: + x_68 >= 0
 r_324: + x_155 + x_154 >= 0
 r_325: + x_154 = 0
 r_326: + x_155 >= 0
 r_327: + x_156 >= 0
 r_328: + x_244 + x_152 >= 0
 r_329: + x_158 + x_157 >= 0
 r_330: + x_157 = 0
 r_331: + x_158 >= 0
 r_332: + x_337 - ~r_332 = 0
 r_333: + x_331 + x_163 >= 0
 r_334: + x_160 + x_159 >= 0
 r_335: + x_325 + x_242 + x_153 >= 0
 r_336: + x_331 - ~r_336 = 0
 r_337: + x_325 - ~r_337 = 0
 r_338: + x_325 + x_242 + x_153 >= 0
 r_339: + x_162 + x_161 >= 0
 r_340: + x_4 >= 0
 r_341: + x_282 - ~r_341 = 0
 r_342: + x_164 + x_163 >= 0
 r_343: + x_83 >= 0
 r_344: + x_310 + x_257 + x_51 + x_17 >= 0
 r_345: + x_310 - ~r_345 = 0
 r_346: + x_165 + x_66 >= 0
 r_347: + x_166 + x_165 >= 0
 r_348: + x_167 >= 0
 r_349: + x_167 >= 0
 r_350: + x_259 + x_170 >= 0
 r_351: + x_169 + x_168 >= 0
 r_352: + x_168 = 0
 r_353: + x_169 >= 0
 r_354: + x_170 = 0
 r_355: + x_260 + x_110 + x_95 >= 0
 r_356: + x_295 + x_292 + x_289 + x_45 >= 0
 r_357: + x_171 >= 0
 r_358: + x_218 >= 0
 r_359: + x_173 + x_172 >= 0
 r_360: + x_172 - ~r_360 = 0
 r_361: + x_173 >= 0
 r_362: + x_262 + x_61 + x_35 >= 0
 r_363: + x_175 + x_174 >= 0
 r_364: + x_264 + x_41 >= 0
 r_365: + x_61 - ~r_365 = 0
 r_366: + x_177 + x_176 >= 0
 r_367: + x_316 + x_246 + x_245 + x_126 + x_119 + x_77 >= 0
 r_368: + x_178 = 0
 r_369: + x_269 + x_254 + x_179 + x_175 + x_107 + x_92 + x_89 + x_86
 + x_80 + x_71 + x_64 >= 0
 r_370: + x_179 >= 0
 r_371: + x_285 + x_255 >= 0
 r_372: + x_181 + x_180 >= 0
 r_373: + x_180 = 0
 r_374: + x_181 >= 0
 r_375: + x_182 >= 0
 r_376: + x_252 + x_101 >= 0
 r_377: + x_184 + x_183 >= 0
 r_378: + x_183 = 0
 r_379: + x_184 >= 0
 r_380: + x_185 >= 0
 r_381: + x_113 >= 0
 r_382: + x_187 + x_186 >= 0
 r_383: + x_186 = 0
 r_384: + x_187 >= 0
 r_385: + x_188 = 0
 r_386: + x_233 >= 0
 r_387: + x_343 + x_340 + x_237 + x_236 + x_234 + x_233 + x_98 >= 0
 r_388: + x_190 + x_125 >= 0
 r_389: + x_190 >= 0
 r_390: + x_190 + x_189 >= 0
 r_391: + x_191 >= 0
 r_392: + x_144 + x_58 + x_55 >= 0
 r_393: + x_191 >= 0
 r_394: + x_144 + x_58 + x_55 >= 0
 r_395: + x_193 + x_192 >= 0
 r_396: + x_192 = 0
 r_397: + x_193 >= 0
 r_398: + x_269 + x_175 + x_107 + x_92 + x_89 + x_86 + x_80 + x_71 >= 0
 r_399: + x_262 + x_61 + x_35 >= 0
 r_400: + x_269 + x_175 + x_107 + x_92 + x_89 + x_86 + x_80 + x_71 >= 0
 r_401: + x_262 + x_61 + x_35 >= 0
 r_402: + x_194 >= 0
 r_403: + x_65 >= 0
 r_404: + x_196 + x_195 >= 0
 r_405: + x_195 - ~r_405 = 0
 r_406: + x_196 >= 0
 r_407: + x_197 >= 0
 r_408: + x_18 >= 0
 r_409: + x_199 + x_198 >= 0
 r_410: + x_198 - ~r_410 = 0
 r_411: + x_199 >= 0
 r_412: + x_200 >= 0
 r_413: + x_286 >= 0
 r_414: + x_202 + x_201 >= 0
 r_415: + x_201 - ~r_415 = 0
 r_416: + x_202 >= 0
 r_417: + x_203 >= 0
 r_418: + x_22 >= 0
 r_419: + x_205 + x_204 >= 0
 r_420: + x_204 - ~r_420 = 0
 r_421: + x_205 >= 0
 r_422: + x_206 >= 0
 r_423: + x_176 >= 0
 r_424: + x_208 + x_207 >= 0
 r_425: + x_207 - ~r_425 = 0
 r_426: + x_208 >= 0
 r_427: + x_209 >= 0
 r_428: + x_33 >= 0
 r_429: + x_211 + x_210 >= 0
 r_430: + x_210 - ~r_430 = 0
 r_431: + x_211 >= 0
 r_432: + x_212 >= 0
 r_433: + x_52 >= 0
 r_434: + x_214 + x_213 >= 0
 r_435: + x_213 - ~r_435 = 0
 r_436: + x_214 >= 0
 r_437: + x_215 >= 0
 r_438: + x_140 >= 0
 r_439: + x_217 + x_216 >= 0
 r_440: + x_216 - ~r_440 = 0
 r_441: + x_217 >= 0
 r_442: + x_218 >= 0
 r_443: + x_295 + x_292 + x_289 + x_174 + x_45 + x_42 + x_36 >= 0
 r_444: + x_220 + x_219 >= 0
 r_445: + x_219 - ~r_445 = 0
 r_446: + x_220 >= 0
 r_447: + x_221 >= 0
 r_448: + x_334 + x_275 >= 0
 r_449: + x_223 + x_222 >= 0
 r_450: + x_222 - ~r_450 = 0
 r_451: + x_223 >= 0
 r_452: + x_224 >= 0
 r_453: + x_274 >= 0
 r_454: + x_226 + x_225 >= 0
 r_455: + x_225 - ~r_455 = 0
 r_456: + x_226 >= 0
 r_457: + x_227 >= 0
 r_458: + x_159 >= 0
 r_459: + x_229 + x_228 >= 0
 r_460: + x_228 - ~r_460 = 0
 r_461: + x_229 >= 0
 r_462: + x_230 >= 0
 r_463: + x_322 >= 0
 r_464: + x_232 + x_231 >= 0
 r_465: + x_231 - ~r_465 = 0
 r_466: + x_232 >= 0
 r_467: + x_233 = 0.00201947764654392
 r_468: + x_234 = 0.0123076440816474
 r_469: + x_343 + x_340 + x_237 + x_236 + x_234 + x_98 >= 0
 r_470: + x_235 = 0.000136803470817911
 r_471: + x_235 + x_188 >= 0
 r_472: + x_236 = 0.000304536691625927
 r_473: + x_340 + x_237 + x_236 + x_98 >= 0
 r_474: + x_237 = 0.00106273678080132
 r_475: + x_237 + x_98 >= 0
 r_476: + x_238 = 0.00160800992971814
 r_477: + x_346 + x_337 + x_328 + x_239 + x_238 + x_185 >= 0
 r_478: + x_239 = 0.00108977136553751
 r_479: + x_346 + x_239 + x_185 >= 0
 r_480: + x_240 = 0.00234121441639866
 r_481: + x_240 + x_116 >= 0
 r_482: + x_241 = 0.00399023127447324
 r_483: + x_349 + x_241 >= 0
 r_484: + x_242 = 0.000419806565176004
 r_485: + x_242 + x_153 >= 0
 r_486: + x_243 = 0.0029110983725625
 r_487: + x_243 + x_156 >= 0
 r_488: + x_244 = 0.00139373034503022
 r_489: + x_244 + x_152 >= 0
 r_490: + x_245 = 0.00298108092604082
 r_491: + x_316 + x_246 + x_245 + x_126 + x_119 + x_77 >= 0
 r_492: + x_246 = 0.00262911745829426
 r_493: + x_246 + x_126 >= 0
 r_494: + x_247 = 0.00210466589169682
 r_495: + x_304 + x_288 + x_248 + x_247 + x_122 >= 0
 r_496: + x_248 = 0.000339395990301132
 r_497: + x_248 + x_122 >= 0
 r_498: + x_249 = 0.000116441386712033
 r_499: + x_249 + x_151 >= 0
 r_500: + x_250 = 0.000390797125473637
 r_501: + x_313 + x_298 + x_256 + x_251 + x_250 + x_182 + x_74 >= 0
 r_502: + x_251 = 0.00415813401574561
 r_503: + x_251 + x_182 >= 0
 r_504: + x_252 = 0.000107059332307595
 r_505: + x_252 + x_101 >= 0
 r_506: + x_253 = 0.0295882873513604
 r_507: + x_269 + x_254 + x_253 + x_179 + x_175 + x_107 + x_92 + x_89
 + x_86 + x_80 + x_71 + x_64 >= 0
 r_508: + x_254 = 0.00442905851167133
 r_509: + x_254 + x_64 >= 0
 r_510: + x_255 = 0.0372769331613877
 r_511: + x_285 + x_255 >= 0
 r_512: + x_256 = 0.000171510826530607
 r_513: + x_256 + x_74 >= 0
 r_514: + x_257 = 0.00181183733187715
 r_515: + x_257 + x_51 + x_17 >= 0
 r_516: + x_258 = 0.000346944356025036
 r_517: + x_260 + x_258 + x_110 + x_95 >= 0
 r_518: + x_259 = 0.00173514737677363
 r_519: + x_259 + x_170 >= 0
 r_520: + x_260 = 0.000211657941597568
 r_521: + x_260 + x_95 >= 0
 r_522: + x_261 = 0.00547656429772255
 r_523: + x_262 + x_261 + x_61 + x_35 >= 0
 r_524: + x_262 = 0.000883869141949713
 r_525: + x_262 + x_35 >= 0
 r_526: + x_263 = 0.00917069799318124
 r_527: + x_263 + x_148 >= 0
 r_528: + x_264 = 0.000125189374768675
 r_529: + x_264 + x_41 >= 0
 r_530: + x_265 = 7.2884103517155e-05
 r_531: + x_265 + x_38 >= 0
 r_532: + x_266 = 0.000143794626659148
 r_533: + x_266 + x_44 >= 0
 r_534: + x_267 = 0.000121254055314556
 r_535: + x_267 + x_47 >= 0
 r_536: + x_268 = 0.00528797592585603
 r_537: + x_268 + x_5 >= 0
 r_538: + x_269 = 0.000879247188585979
 r_539: + x_269 + x_92 >= 0
 r_540: + x_270 = 0.0170239088056112
 r_541: + x_270 + x_178 >= 0
 r_542: + x_271 >= 0
 r_543: + x_221 >= 0
 r_544: + x_273 + x_272 >= 0
 r_545: + x_272 - ~r_545 = 0
 r_546: + x_273 >= 0
 r_547: + x_334 + x_275 >= 0
 r_548: + x_275 + x_274 >= 0
 r_549: + x_331 + x_163 >= 0
 r_550: + x_334 - ~r_550 = 0
 r_551: + x_276 >= 0
 r_552: + x_224 >= 0
 r_553: + x_278 + x_277 >= 0
 r_554: + x_277 - ~r_554 = 0
 r_555: + x_278 >= 0
 r_556: + x_279 >= 0
 r_557: + x_227 >= 0
 r_558: + x_281 + x_280 >= 0
 r_559: + x_280 - ~r_559 = 0
 r_560: + x_281 >= 0
 r_561: + x_282 >= 0
 r_562: + x_230 >= 0
 r_563: + x_284 + x_283 >= 0
 r_564: + x_283 - ~r_564 = 0
 r_565: + x_284 >= 0
 r_566: + x_285 = 0
 r_567: + x_190 + x_125 >= 0
 r_568: + x_287 + x_286 >= 0
 r_569: + x_304 + x_288 + x_248 + x_247 + x_122 >= 0
 r_570: + x_288 = 0
 r_571: + x_119 + x_77 >= 0
 r_572: + x_301 + x_260 + x_258 + x_110 + x_95 >= 0
 r_573: + x_301 - ~r_573 = 0
 r_574: + x_249 + x_151 + x_3 >= 0
 r_575: + x_289 >= 0
 r_576: + x_53 >= 0
 r_577: + x_291 + x_290 >= 0
 r_578: + x_290 = 0
 r_579: + x_291 >= 0
 r_580: + x_292 >= 0
 r_581: + x_10 >= 0
 r_582: + x_294 + x_293 >= 0
 r_583: + x_293 = 0
 r_584: + x_294 >= 0
 r_585: + x_295 >= 0
 r_586: + x_150 >= 0
 r_587: + x_297 + x_296 >= 0
 r_588: + x_296 = 0
 r_589: + x_297 >= 0
 r_590: + x_298 >= 0
 r_591: + x_137 >= 0
 r_592: + x_300 + x_299 >= 0
 r_593: + x_299 = 0
 r_594: + x_300 >= 0
 r_595: + x_301 >= 0
 r_596: + x_11 >= 0
 r_597: + x_303 + x_302 >= 0
 r_598: + x_302 = 0
 r_599: + x_303 >= 0
 r_600: + x_304 >= 0
 r_601: + x_48 >= 0
 r_602: + x_306 + x_305 >= 0
 r_603: + x_305 = 0
 r_604: + x_306 >= 0
 r_605: + x_307 >= 0
 r_606: + x_14 >= 0
 r_607: + x_309 + x_308 >= 0
 r_608: + x_308 = 0
 r_609: + x_309 >= 0
 r_610: + x_310 >= 0
 r_611: + x_19 >= 0
 r_612: + x_312 + x_311 >= 0
 r_613: + x_311 = 0
 r_614: + x_312 >= 0
 r_615: + x_313 >= 0
 r_616: + x_30 >= 0
 r_617: + x_315 + x_314 >= 0
 r_618: + x_314 = 0
 r_619: + x_315 >= 0
 r_620: + x_316 >= 0
 r_621: + x_24 >= 0
 r_622: + x_318 + x_317 >= 0
 r_623: + x_317 = 0
 r_624: + x_318 >= 0
 r_625: + x_319 >= 0
 r_626: + x_40 >= 0
 r_627: + x_321 + x_320 >= 0
 r_628: + x_320 = 0
 r_629: + x_321 >= 0
 r_630: + x_322 >= 0
 r_631: + x_161 >= 0
 r_632: + x_324 + x_323 >= 0
 r_633: + x_323 = 0
 r_634: + x_324 >= 0
 r_635: + x_325 >= 0
 r_636: + x_282 >= 0
 r_637: + x_327 + x_326 >= 0
 r_638: + x_326 = 0
 r_639: + x_327 >= 0
 r_640: + x_328 >= 0
 r_641: + x_27 >= 0
 r_642: + x_330 + x_329 >= 0
 r_643: + x_329 = 0
 r_644: + x_330 >= 0
 r_645: + x_331 >= 0
 r_646: + x_279 >= 0
 r_647: + x_333 + x_332 >= 0
 r_648: + x_332 = 0
 r_649: + x_333 >= 0
 r_650: + x_334 >= 0
 r_651: + x_276 >= 0
 r_652: + x_336 + x_335 >= 0
 r_653: + x_335 = 0
 r_654: + x_336 >= 0
 r_655: + x_337 >= 0
 r_656: + x_271 >= 0
 r_657: + x_339 + x_338 >= 0
 r_658: + x_338 = 0
 r_659: + x_339 >= 0
 r_660: + x_340 >= 0
 r_661: + x_127 >= 0
 r_662: + x_342 + x_341 >= 0
 r_663: + x_341 = 0
 r_664: + x_342 >= 0
 r_665: + x_343 >= 0
 r_666: + x_130 >= 0
 r_667: + x_345 + x_344 >= 0
 r_668: + x_344 = 0
 r_669: + x_345 >= 0
 r_670: + x_295 + x_292 + x_289 + x_174 + x_45 + x_42 + x_36 >= 0
 r_671: + x_295 + x_292 + x_289 + x_45 + x_42 + x_36 - ~r_671 = 0
 r_672: + x_346 >= 0
 r_673: + x_240 + x_116 >= 0
 r_674: + x_348 + x_347 >= 0
 r_675: + x_347 = 0
 r_676: + x_348 >= 0
 r_677: + x_349 = 0
 r_678: + x_346 + x_185 >= 0
 r_679: + x_346 + x_337 + x_328 + x_239 + x_185 >= 0
 r_680: + x_8 + x_7 - x_268 - x_5 = 0
 r_681: + x_6 - x_8 - x_7 = 0
 r_682: + x_13 + x_12 - x_194 = 0
 r_683: + x_11 - x_13 - x_12 = 0
 r_684: + x_16 + x_15 - x_197 = 0
 r_685: + x_14 - x_16 - x_15 = 0
 r_686: + x_21 + x_20 - x_200 = 0
 r_687: + x_19 - x_21 - x_20 = 0
 r_688: + x_26 + x_25 - x_203 = 0
 r_689: + x_24 - x_26 - x_25 = 0
 r_690: + x_29 + x_28 - x_206 = 0
 r_691: + x_27 - x_29 - x_28 = 0
 r_692: + x_32 + x_31 - x_209 = 0
 r_693: + x_30 - x_32 - x_31 = 0
 r_694: + x_50 + x_49 - x_212 = 0
 r_695: + x_48 - x_50 - x_49 = 0
 r_696: + x_57 + x_56 - x_142 = 0
 r_697: + x_55 - x_57 - x_56 = 0
 r_698: + x_60 + x_59 - x_143 = 0
 r_699: + x_58 - x_60 - x_59 = 0
 r_700: + x_63 + x_62 - x_171 = 0
 r_701: + x_61 - x_63 - x_62 = 0
 r_702: + x_70 + x_69 - x_162 = 0
 r_703: + x_68 - x_70 - x_69 = 0
 r_704: + x_73 + x_72 - x_9 = 0
 r_705: + x_71 - x_73 - x_72 = 0
 r_706: + x_76 + x_75 - x_34 = 0
 r_707: + x_74 - x_76 - x_75 = 0
 r_708: + x_79 + x_78 - x_23 = 0
 r_709: + x_77 - x_79 - x_78 = 0
 r_710: + x_82 + x_81 - x_37 = 0
 r_711: + x_80 - x_82 - x_81 = 0
 r_712: + x_85 + x_84 - x_39 = 0
 r_713: + x_83 - x_85 - x_84 = 0
 r_714: + x_88 + x_87 - x_43 = 0
 r_715: + x_86 - x_88 - x_87 = 0
 r_716: + x_91 + x_90 - x_46 = 0
 r_717: + x_89 - x_91 - x_90 = 0
 r_718: + x_94 + x_93 - x_54 = 0
 r_719: + x_92 - x_94 - x_93 = 0
 r_720: + x_97 + x_96 - x_67 = 0
 r_721: + x_95 - x_97 - x_96 = 0
 r_722: + x_100 + x_99 - x_135 = 0
 r_723: + x_98 - x_100 - x_99 = 0
 r_724: + x_103 + x_102 - x_141 = 0
 r_725: + x_101 - x_103 - x_102 = 0
 r_726: + x_106 + x_105 - x_160 = 0
 r_727: + x_104 - x_106 - x_105 = 0
 r_728: + x_109 + x_108 - x_149 = 0
 r_729: + x_107 - x_109 - x_108 = 0
 r_730: + x_112 + x_111 - x_166 = 0
 r_731: + x_110 - x_112 - x_111 = 0
 r_732: + x_115 + x_114 - x_177 = 0
 r_733: + x_113 - x_115 - x_114 = 0
 r_734: + x_118 + x_117 - x_164 - x_104 = 0
 r_735: + x_116 - x_118 - x_117 = 0
 r_736: + x_121 + x_120 - x_287 = 0
 r_737: + x_119 - x_121 - x_120 = 0
 r_738: + x_124 + x_123 - x_249 - x_151 - x_3 = 0
 r_739: + x_122 - x_124 - x_123 = 0
 r_740: + x_129 + x_128 - x_133 = 0
 r_741: + x_127 - x_129 - x_128 = 0
 r_742: + x_132 + x_131 - x_134 = 0
 r_743: + x_130 - x_132 - x_131 = 0
 r_744: + x_139 + x_138 - x_215 = 0
 r_745: + x_137 - x_139 - x_138 = 0
 r_746: + x_147 + x_146 - x_136 = 0
 r_747: + x_145 - x_147 - x_146 = 0
 r_748: + x_155 + x_154 - x_68 = 0
 r_749: + x_153 - x_155 - x_154 = 0
 r_750: + x_158 + x_157 - x_244 - x_152 = 0
 r_751: + x_156 - x_158 - x_157 = 0
 r_752: + x_169 + x_168 - x_259 - x_170 = 0
 r_753: + x_167 - x_169 - x_168 = 0
 r_754: + x_173 + x_172 - x_218 = 0
 r_755: + x_171 - x_173 - x_172 = 0
 r_756: + x_181 + x_180 - x_285 - x_255 = 0
 r_757: + x_179 - x_181 - x_180 = 0
 r_758: + x_184 + x_183 - x_252 - x_101 = 0
 r_759: + x_182 - x_184 - x_183 = 0
 r_760: + x_187 + x_186 - x_113 = 0
 r_761: + x_185 - x_187 - x_186 = 0
 r_762: + x_193 + x_192 - x_144 - x_58 - x_55 = 0
 r_763: + x_191 - x_193 - x_192 = 0
 r_764: + x_196 + x_195 - x_65 = 0
 r_765: + x_194 - x_196 - x_195 = 0
 r_766: + x_199 + x_198 - x_18 = 0
 r_767: + x_197 - x_199 - x_198 = 0
 r_768: + x_202 + x_201 - x_286 = 0
 r_769: + x_200 - x_202 - x_201 = 0
 r_770: + x_205 + x_204 - x_22 = 0
 r_771: + x_203 - x_205 - x_204 = 0
 r_772: + x_208 + x_207 - x_176 = 0
 r_773: + x_206 - x_208 - x_207 = 0
 r_774: + x_211 + x_210 - x_33 = 0
 r_775: + x_209 - x_211 - x_210 = 0
 r_776: + x_214 + x_213 - x_52 = 0
 r_777: + x_212 - x_214 - x_213 = 0
 r_778: + x_217 + x_216 - x_140 = 0
 r_779: + x_215 - x_217 - x_216 = 0
 r_780: + x_220 + x_219 - x_295 - x_292 - x_289 - x_174 - x_45 - x_42
 - x_36 = 0
 r_781: + x_218 - x_220 - x_219 = 0
 r_782: + x_223 + x_222 - x_334 - x_275 = 0
 r_783: + x_221 - x_223 - x_222 = 0
 r_784: + x_226 + x_225 - x_274 = 0
 r_785: + x_224 - x_226 - x_225 = 0
 r_786: + x_229 + x_228 - x_159 = 0
 r_787: + x_227 - x_229 - x_228 = 0
 r_788: + x_232 + x_231 - x_322 = 0
 r_789: + x_230 - x_232 - x_231 = 0
 r_790: + x_273 + x_272 - x_221 = 0
 r_791: + x_271 - x_273 - x_272 = 0
 r_792: + x_278 + x_277 - x_224 = 0
 r_793: + x_276 - x_278 - x_277 = 0
 r_794: + x_281 + x_280 - x_227 = 0
 r_795: + x_279 - x_281 - x_280 = 0
 r_796: + x_284 + x_283 - x_230 = 0
 r_797: + x_282 - x_284 - x_283 = 0
 r_798: + x_291 + x_290 - x_53 = 0
 r_799: + x_289 - x_291 - x_290 = 0
 r_800: + x_294 + x_293 - x_10 = 0
 r_801: + x_292 - x_294 - x_293 = 0
 r_802: + x_297 + x_296 - x_150 = 0
 r_803: + x_295 - x_297 - x_296 = 0
 r_804: + x_300 + x_299 - x_137 = 0
 r_805: + x_298 - x_300 - x_299 = 0
 r_806: + x_303 + x_302 - x_11 = 0
 r_807: + x_301 - x_303 - x_302 = 0
 r_808: + x_306 + x_305 - x_48 = 0
 r_809: + x_304 - x_306 - x_305 = 0
 r_810: + x_309 + x_308 - x_14 = 0
 r_811: + x_307 - x_309 - x_308 = 0
 r_812: + x_312 + x_311 - x_19 = 0
 r_813: + x_310 - x_312 - x_311 = 0
 r_814: + x_315 + x_314 - x_30 = 0
 r_815: + x_313 - x_315 - x_314 = 0
 r_816: + x_318 + x_317 - x_24 = 0
 r_817: + x_316 - x_318 - x_317 = 0
 r_818: + x_321 + x_320 - x_40 = 0
 r_819: + x_319 - x_321 - x_320 = 0
 r_820: + x_324 + x_323 - x_161 = 0
 r_821: + x_322 - x_324 - x_323 = 0
 r_822: + x_327 + x_326 - x_282 = 0
 r_823: + x_325 - x_327 - x_326 = 0
 r_824: + x_330 + x_329 - x_27 = 0
 r_825: + x_328 - x_330 - x_329 = 0
 r_826: + x_333 + x_332 - x_279 = 0
 r_827: + x_331 - x_333 - x_332 = 0
 r_828: + x_336 + x_335 - x_276 = 0
 r_829: + x_334 - x_336 - x_335 = 0
 r_830: + x_339 + x_338 - x_271 = 0
 r_831: + x_337 - x_339 - x_338 = 0
 r_832: + x_342 + x_341 - x_127 = 0
 r_833: + x_340 - x_342 - x_341 = 0
 r_834: + x_345 + x_344 - x_130 = 0
 r_835: + x_343 - x_345 - x_344 = 0
 r_836: + x_348 + x_347 - x_240 - x_116 = 0
 r_837: + x_346 - x_348 - x_347 = 0
 r_838: - x_3 - x_2 + x_165 + x_66 = 0
 r_839: - x_4 + x_319 + x_243 + x_156 - ~r_839 = 0
 r_840: - x_10 - x_9 + x_6 = 0
 r_841: - x_18 - x_17 + x_301 + x_260 + x_258 + x_110 + x_95 = 0
 r_842: - x_23 - x_22 + x_313 + x_298 + x_256 + x_251 + x_250 + x_182
 + x_74 = 0
 r_843: - x_34 - x_33 + x_310 + x_307 + x_257 + x_51 + x_17 = 0
 r_844: - x_37 - x_36 + x_265 + x_38 = 0
 r_845: - x_40 - x_39 + x_349 + x_241 = 0
 r_846: - x_43 - x_42 + x_266 + x_44 = 0
 r_847: - x_46 - x_45 + x_267 + x_47 = 0
 r_848: - x_52 - x_51 + x_2 + x_1 = 0
 r_849: - x_54 - x_53 + x_270 + x_178 - ~r_849 = 0
 r_850: - x_67 - x_66 - x_65 + x_262 + x_261 + x_61 + x_35 - ~r_850 = 0
 r_851: - x_135 - x_134 - x_133 + x_346 + x_337 + x_328 + x_239 + x_238
 + x_185 - ~r_851 = -0.5
 r_852: - x_136 + x_263 + x_148 - ~r_852 = 0
 r_853: - x_141 - x_140 + x_269 + x_254 + x_253 + x_179 + x_175 + x_107
 + x_92 + x_89 + x_86 + x_80 + x_71 + x_64 - ~r_853 = 0
 r_854: - x_144 - x_143 - x_142 + x_343 + x_340 + x_237 + x_236 + x_235
 + x_234 + x_233 + x_188 + x_98 = 0
 r_855: - x_150 - x_149 + x_145 = 0
 r_856: - x_160 - x_159 + x_325 + x_242 + x_153 = 0
 r_857: - x_162 - x_161 + x_4 = 0
 r_858: - x_164 - x_163 + x_83 = 0
 r_859: - x_166 - x_165 + x_167 = 0
 r_860: - x_175 - x_174 + x_264 + x_41 = 0
 r_861: - x_177 - x_176 + x_316 + x_246 + x_245 + x_126 + x_119 + x_77
 - ~r_861 = -26.93
 r_862: - x_190 - x_189 + x_191 = 0
 r_863: - x_275 - x_274 + x_331 + x_163 = 0
 r_864: - x_287 - x_286 + x_304 + x_288 + x_248 + x_247 + x_122 - ~r_864
 = 0

Bounds
 0 <= ~r_17 <= 1.10073599753435
 0 <= ~r_18 <= 6.11711998629765
 0 <= ~r_19 <= 5.96764798663247
 0 <= ~r_20 <= 1.590623996437
 0 <= ~r_21 <= 1.71244799616412
 0 <= ~r_22 <= 1.51718399660151
 0 <= ~r_23 <= 1.51718399660151
 0 <= ~r_24 <= 1.52927999657441
 0 <= ~r_25 <= 7.95225598218695
 0 <= ~r_26 <= 7.95225598218695
 0 <= ~r_27 <= 9.05385597971936
 0 <= ~r_28 <= 9.05385597971936
 0 <= ~r_29 <= 2.87020799357073
 0 <= ~r_30 <= 2.87020799357073
 0 <= ~r_31 <= 4.30617599035417
 0 <= ~r_32 <= 4.30617599035417
 0 <= ~r_33 <= 4.30617599035417
 0 <= ~r_34 <= 4.30617599035417
 0 <= ~r_35 <= 4.30617599035417
 0 <= ~r_36 <= 4.30617599035417
 0 <= ~r_37 <= 6.11711998629765
 0 <= ~r_38 <= 6.11711998629765
 0 <= ~r_39 <= 15.9045119643739
 0 <= ~r_40 <= 15.9045119643739
 0 <= ~r_41 <= 12.4796159720457
 0 <= ~r_42 <= 12.4796159720457
 0 <= ~r_43 <= 6.11711998629765
 0 <= ~r_44 <= 6.11711998629765
 0 <= ~r_45 <= 0.514079998848461
 0 <= ~r_46 <= 0.391391999123282
 0 <= ~r_47 <= 0.514079998848461
 0 <= ~r_48 <= 0.391391999123282
 0 <= ~r_49 <= 1.52927999657441
 0 <= ~r_50 <= 5.96764798663247
 0 <= ~r_51 <= 5.96764798663247
 0 <= ~r_52 <= 1.590623996437
 0 <= ~r_53 <= 4.30617599035417
 0 <= ~r_54 <= 3.67027199177859
 0 <= ~r_55 <= 3.67027199177859
 0 <= ~r_56 <= 1.71244799616412
 0 <= ~r_57 <= 1.51718399660151
 0 <= ~r_58 <= 1.52927999657441
 0 <= ~r_59 <= 7.95225598218695
 0 <= ~r_60 <= 9.05385597971936
 0 <= ~r_61 <= 2.87020799357073
 0 <= ~r_62 <= 6.11711998629765
 0 <= ~r_63 <= 15.9045119643739
 0 <= ~r_64 <= 12.4796159720457
 0 <= ~r_65 <= 6.11711998629765
 0 <= ~r_66 <= 3.67027199177859
 0 <= ~r_67 <= 0.514079998848461
 0 <= ~r_68 <= 0.408671999084575
 0 <= ~r_69 <= 0.391391999123282
 0 <= ~r_70 <= 0.391391999123282
 0 <= ~r_71 <= 0.514079998848461
 0 <= ~r_72 <= 0.408671999084575
 0 <= ~r_73 <= 0.514079998848461
 0 <= ~r_74 <= 0.514079998848461
 0 <= ~r_75 <= 0.408671999084575
 0 <= ~r_76 <= 0.391391999123282
 0 <= ~r_77 <= 0.391391999123282
 0 <= ~r_78 <= 1.71244799616412
 0 <= ~r_79 <= 5.96764798663247
 0 <= ~r_80 <= 4.30617599035417
 0 <= ~r_81 <= 3.67027199177859
 0 <= ~r_85 <= 7.8251822040264e-06
 0 <= ~r_90 <= 0.128327122619657
 0 <= ~r_95 <= 1.51718399660151
 0 <= ~r_99 <= 0.000224832952552345
 0 <= ~r_102 <= 7.95225598218695
 0 <= ~r_108 <= 7.83007644805111
 0 <= ~r_111 <= 9.05385597971936
 0 <= ~r_115 <= 0.00524000635494243
 0 <= ~r_120 <= 3.25926932150128
 0 <= ~r_125 <= 2.87020799357073
 0 <= ~r_133 <= 0.196127999560673
 0 <= ~r_153 <= 0.00110644260877789
 0 <= ~r_158 <= 6.11711998629765
 0 <= ~r_183 <= 0.00489317758903928
 0 <= ~r_188 <= 0.00042276825249627
 0 <= ~r_193 <= 0.000634152378744405
 0 <= ~r_198 <= 0.000634152378744405
 0 <= ~r_203 <= 8.4553650499254e-05
 0 <= ~r_208 <= 0.000951228568116608
 0 <= ~r_213 <= 6.34152378744405e-05
 0 <= ~r_218 <= 0.000105692063124068
 0 <= ~r_223 <= 0.0035935301462183
 0 <= ~r_228 <= 0.00042276825249627
 0 <= ~r_233 <= 0.00528460315620338
 0 <= ~r_238 <= 0.00528460315620338
 0 <= ~r_243 <= 0.00042276825249627
 0 <= ~r_248 <= 0.00190245713623322
 0 <= ~r_253 <= 6.34152378744405e-05
 0 <= ~r_258 <= 0.000634152378744405
 0 <= ~r_263 <= 0.000105692063124068
 0 <= ~r_268 <= 1.79572929089053e-05
 0 <= ~r_273 <= 0.00084553650499254
 0 <= ~r_281 <= -0.000215837369333791
 0 <= ~r_284 <= 15.9045119643739
 0 <= ~r_288 <= 0.00888714627097606
 0 <= ~r_291 <= 12.4796159720457
 0 <= ~r_299 <= 0.00110520772837529
 0 <= ~r_304 <= 6.11711998629765
 0 <= ~r_317 <= 1.590623996437
 0 <= ~r_332 <= 0.514079998848461
 0 <= ~r_336 <= 0.391391999123282
 0 <= ~r_337 <= 0.391391999123282
 0 <= ~r_341 <= 0.391391999123282
 0 <= ~r_345 <= 1.590623996437
 0 <= ~r_360 <= 0.000393767596540164
 0 <= ~r_365 <= 3.67027199177859
 0 <= ~r_405 <= 0.146297148027681
 0 <= ~r_410 <= 0.128327122619657
 0 <= ~r_415 <= 1.52931180625998
 0 <= ~r_420 <= 7.83007644805111
 0 <= ~r_425 <= 9.0535258930591
 0 <= ~r_430 <= 3.25926932150128
 0 <= ~r_435 <= 5.61807985147667
 0 <= ~r_440 <= 6.11724722503993
 0 <= ~r_445 <= 1.77155479637156
 0 <= ~r_450 <= 0.575021239153754
 0 <= ~r_455 <= 0.408632114632667
 0 <= ~r_460 <= 0.0102769753380671
 0 <= ~r_465 <= 0.367034833502396
 0 <= ~r_545 <= 0.575021239153754
 0 <= ~r_550 <= 0.408671999084575
 0 <= ~r_554 <= 0.408632114632667
 0 <= ~r_559 <= 0.0102769753380671
 0 <= ~r_564 <= 7.19357864997445e-06
 0 <= ~r_573 <= 1.71244799616412
 0 <= ~r_671 <= 4.30617599035417
 0 <= ~r_839 <= 28.61
 0 <= ~r_849 <= 78.16
 0 <= ~r_850 <= 72.94
 0 <= ~r_851 <= 0.5
 0 <= ~r_852 <= 146.17
 0 <= ~r_853 <= 142.89
 0 <= ~r_861 <= 26.93
 0 <= ~r_864 <= 166.69

End
